\ LP format - for model browsing. Use MPS format to capture full model detail.
Minimize
  0 B9(0) + 0 B11(0) + 0 B13(0) + 0 B19(0) + 0 B20(0) + 0 B22(0) + 0 B27(0)
   + 0 B28(0) + 0 B29(0) + 0 B30(0) + 0 B31(0) + 0 B32(0) + 0 B33(0)
   + 0 B34(0) + 0 B35(0) + 0 B36(0) + 0 B37(0) + 0 B38(0) + 0 B39(0)
   + 0 B40(0) + 0 B45(0) + 0 B46(0) + 0 B47(0) + 0 B48(0) + 0 B49(0)
   + 0 B50(0) + 0 B51(0) + 0 B52(0) + 0 B53(0) + 0 B54(0) + 0 B55(0)
   + 0 B56(0) + 0 B58(0) + 0 B59(0) + 0 B63(0) + 0 B64(0) + 0 B65(0)
   + 0 B66(0) + 0 B67(0) + 0 B68(0) + 0 B69(0) + 0 B72(0) + 0 B73(0)
   + 0 B74(0) + 0 B75(0) + 0 B76(0) + 0 B77(0) + 0 B79(0) + 0 B81(0)
   + 0 B82(0) + 0 B83(0) + 0 B84(0) + 0 B85(0) + 0 B86(0) + 0 B89(0)
   + I99(1)
Subject To
 c0: - 4 B0(18) - 4 B3(17) - 4 B6(20) - I90(19) - I93(19) - I96(21)
   + I99(1) >= 0
 c1: B0(18) = 1
 c2: B1(18) = 1
 c3: B2(4) = 1
 c4: B3(17) = 1
 c5: B4(4) = 1
 c6: B5(17) = 1
 c7: B6(20) = 1
 c8: B7(20) = 1
 c9: B8(20) = 1
 c10: - 1e+07 B0(18) + I90(19) <= 0
 c11: - 1e+07 B1(18) + I91(19) <= 0
 c12: - 1e+07 B2(4) + I92(4) <= 0
 c13: - 1e+07 B3(17) + I93(19) <= 0
 c14: - 1e+07 B4(4) + I94(4) <= 0
 c15: - 1e+07 B5(17) + I95(19) <= 0
 c16: - 1e+07 B6(20) + I96(21) <= 0
 c17: - 1e+07 B7(20) + I97(21) <= 0
 c18: - 1e+07 B8(20) + I98(20) <= 0
 c19: - 3 B1(18) + I90(19) - I91(19) >= 0
 c20: - 3 B2(4) + I91(19) - I92(4) >= 0
 c21: - 3 B4(4) - I94(4) + I95(19) >= 0
 c22: - 2 B5(17) + I93(19) - I95(19) >= 0
 c23: - 3 B7(20) + I96(21) - I97(21) >= 0
 c24: - 4 B8(20) + I97(21) - I98(20) >= 0
 c25: - 1e+07 B0(18) - 1e+07 B1(18) + 1e+07 B10(2) - I90(19) + I91(19)
   >= -1.9999992e+07
 c26: - 1e+07 B0(18) - 1e+07 B1(18) - 1e+07 B10(2) + I90(19) - I91(19)
   >= -2.9999985e+07
 c27: - 1e+07 B0(18) - 1e+07 B3(17) + 1e+07 B12(2) - I90(19) + I93(19)
   >= -1.9999987e+07
 c28: - 1e+07 B0(18) - 1e+07 B3(17) - 1e+07 B12(2) + I90(19) - I93(19)
   >= -2.9999984e+07
 c29: - 1e+07 B0(18) - 1e+07 B5(17) + 1e+07 B14(2) - I90(19) + I95(19)
   >= -1.9999986e+07
 c30: - 1e+07 B0(18) - 1e+07 B5(17) - 1e+07 B14(2) + I90(19) - I95(19)
   >= -2.9999986e+07
 c31: - 1e+07 B0(18) - 1e+07 B6(20) + 1e+07 B15(2) - I90(19) + I96(21)
   >= -1.9999987e+07
 c32: - 1e+07 B0(18) - 1e+07 B6(20) - 1e+07 B15(2) + I90(19) - I96(21)
   >= -2.9999992e+07
 c33: - 1e+07 B0(18) - 1e+07 B7(20) + 1e+07 B16(2) - I90(19) + I97(21)
   >= -1.9999984e+07
 c34: - 1e+07 B0(18) - 1e+07 B7(20) - 1e+07 B16(2) + I90(19) - I97(21)
   >= -2.9999995e+07
 c35: - 1e+07 B0(18) - 1e+07 B8(20) + 1e+07 B17(2) - I90(19) + I98(20)
   >= -1.9999988e+07
 c36: - 1e+07 B0(18) - 1e+07 B8(20) - 1e+07 B17(2) + I90(19) - I98(20)
   >= -2.9999988e+07
 c37: - 1e+07 B0(18) - 1e+07 B1(18) + 1e+07 B18(2) + I90(19) - I91(19)
   >= -1.9999985e+07
 c38: - 1e+07 B0(18) - 1e+07 B1(18) - 1e+07 B18(2) - I90(19) + I91(19)
   >= -2.9999992e+07
 c39: - 1e+07 B1(18) - 1e+07 B3(17) + 1e+07 B21(2) - I91(19) + I93(19)
   >= -1.9999993e+07
 c40: - 1e+07 B1(18) - 1e+07 B3(17) - 1e+07 B21(2) + I91(19) - I93(19)
   >= -2.9999994e+07
 c41: - 1e+07 B1(18) - 1e+07 B5(17) + 1e+07 B23(2) - I91(19) + I95(19)
   >= -1.9999995e+07
 c42: - 1e+07 B1(18) - 1e+07 B5(17) - 1e+07 B23(2) + I91(19) - I95(19)
   >= -2.9999986e+07
 c43: - 1e+07 B1(18) - 1e+07 B6(20) + 1e+07 B24(2) - I91(19) + I96(21)
   >= -1.9999981e+07
 c44: - 1e+07 B1(18) - 1e+07 B6(20) - 1e+07 B24(2) + I91(19) - I96(21)
   >= -2.9999984e+07
 c45: - 1e+07 B1(18) - 1e+07 B7(20) + 1e+07 B25(2) - I91(19) + I97(21)
   >= -1.9999993e+07
 c46: - 1e+07 B1(18) - 1e+07 B7(20) - 1e+07 B25(2) + I91(19) - I97(21)
   >= -2.9999993e+07
 c47: - 1e+07 B1(18) - 1e+07 B8(20) + 1e+07 B26(2) - I91(19) + I98(20)
   >= -1.9999985e+07
 c48: - 1e+07 B1(18) - 1e+07 B8(20) - 1e+07 B26(2) + I91(19) - I98(20)
   >= -2.9999981e+07
 c49: - 1e+07 B3(17) - 1e+07 B5(17) + 1e+07 B41(2) - I93(19) + I95(19)
   >= -1.9999992e+07
 c50: - 1e+07 B3(17) - 1e+07 B5(17) - 1e+07 B41(2) + I93(19) - I95(19)
   >= -2.9999994e+07
 c51: - 1e+07 B3(17) - 1e+07 B6(20) + 1e+07 B42(2) - I93(19) + I96(21)
   >= -1.9999981e+07
 c52: - 1e+07 B3(17) - 1e+07 B6(20) - 1e+07 B42(2) + I93(19) - I96(21)
   >= -2.9999986e+07
 c53: - 1e+07 B3(17) - 1e+07 B7(20) + 1e+07 B43(2) - I93(19) + I97(21)
   >= -1.9999994e+07
 c54: - 1e+07 B3(17) - 1e+07 B7(20) - 1e+07 B43(2) + I93(19) - I97(21)
   >= -2.9999995e+07
 c55: - 1e+07 B3(17) - 1e+07 B8(20) + 1e+07 B44(2) - I93(19) + I98(20)
   >= -1.9999984e+07
 c56: - 1e+07 B3(17) - 1e+07 B8(20) - 1e+07 B44(2) + I93(19) - I98(20)
   >= -2.9999981e+07
 c57: - 1e+07 B3(17) - 1e+07 B5(17) + 1e+07 B57(2) + I93(19) - I95(19)
   >= -1.9999994e+07
 c58: - 1e+07 B3(17) - 1e+07 B5(17) - 1e+07 B57(2) - I93(19) + I95(19)
   >= -2.9999992e+07
 c59: - 1e+07 B5(17) - 1e+07 B6(20) + 1e+07 B60(2) - I95(19) + I96(21)
   >= -1.999999e+07
 c60: - 1e+07 B5(17) - 1e+07 B6(20) - 1e+07 B60(2) + I95(19) - I96(21)
   >= -2.999999e+07
 c61: - 1e+07 B5(17) - 1e+07 B7(20) + 1e+07 B61(2) - I95(19) + I97(21)
   >= -1.9999978e+07
 c62: - 1e+07 B5(17) - 1e+07 B7(20) - 1e+07 B61(2) + I95(19) - I97(21)
   >= -2.9999977e+07
 c63: - 1e+07 B5(17) - 1e+07 B8(20) + 1e+07 B62(2) - I95(19) + I98(20)
   >= -1.9999989e+07
 c64: - 1e+07 B5(17) - 1e+07 B8(20) - 1e+07 B62(2) + I95(19) - I98(20)
   >= -2.9999984e+07
 c65: - 1e+07 B6(20) - 1e+07 B7(20) + 1e+07 B70(2) - I96(21) + I97(21)
   >= -1.9999992e+07
 c66: - 1e+07 B6(20) - 1e+07 B7(20) - 1e+07 B70(2) + I96(21) - I97(21)
   >= -2.9999981e+07
 c67: - 1e+07 B6(20) - 1e+07 B8(20) + 1e+07 B71(2) - I96(21) + I98(20)
   >= -1.9999987e+07
 c68: - 1e+07 B6(20) - 1e+07 B8(20) - 1e+07 B71(2) + I96(21) - I98(20)
   >= -2.999999e+07
 c69: - 1e+07 B6(20) - 1e+07 B7(20) + 1e+07 B78(2) + I96(21) - I97(21)
   >= -1.9999981e+07
 c70: - 1e+07 B6(20) - 1e+07 B7(20) - 1e+07 B78(2) - I96(21) + I97(21)
   >= -2.9999992e+07
 c71: - 1e+07 B7(20) - 1e+07 B8(20) + 1e+07 B80(2) - I97(21) + I98(20)
   >= -1.9999987e+07
 c72: - 1e+07 B7(20) - 1e+07 B8(20) - 1e+07 B80(2) + I97(21) - I98(20)
   >= -2.9999984e+07
 c73: - 1e+07 B6(20) - 1e+07 B8(20) + 1e+07 B87(2) + I96(21) - I98(20)
   >= -1.999999e+07
 c74: - 1e+07 B6(20) - 1e+07 B8(20) - 1e+07 B87(2) - I96(21) + I98(20)
   >= -2.9999987e+07
 c75: - 1e+07 B7(20) - 1e+07 B8(20) + 1e+07 B88(2) + I97(21) - I98(20)
   >= -1.9999984e+07
 c76: - 1e+07 B7(20) - 1e+07 B8(20) - 1e+07 B88(2) - I97(21) + I98(20)
   >= -2.9999987e+07
 c77: - 2 B0(18) + I90(19) >= 0
 c78: I90(19) >= 0
 c79: - B1(18) + I91(19) >= 0
 c80: I91(19) >= 0
 c81: - B2(4) + I92(4) >= 0
 c82: I92(4) >= 0
 c83: I93(19) >= 0
 c84: I93(19) >= 0
 c85: - 2 B4(4) + I94(4) >= 0
 c86: I94(4) >= 0
 c87: I95(19) >= 0
 c88: I95(19) >= 0
 c89: - B6(20) + I96(21) >= 0
 c90: I96(21) >= 0
 c91: - 2 B7(20) + I97(21) >= 0
 c92: I97(21) >= 0
 c93: - B8(20) + I98(20) >= 0
 c94: I98(20) >= 0
Bounds
Binaries
 B0(18) B1(18) B2(4) B3(17) B4(4) B5(17) B6(20) B7(20) B8(20) B9(0) B10(2)
 B11(0) B12(2) B13(0) B14(2) B15(2) B16(2) B17(2) B18(2) B19(0) B20(0)
 B21(2) B22(0) B23(2) B24(2) B25(2) B26(2) B27(0) B28(0) B29(0) B30(0)
 B31(0) B32(0) B33(0) B34(0) B35(0) B36(0) B37(0) B38(0) B39(0) B40(0)
 B41(2) B42(2) B43(2) B44(2) B45(0) B46(0) B47(0) B48(0) B49(0) B50(0)
 B51(0) B52(0) B53(0) B54(0) B55(0) B56(0) B57(2) B58(0) B59(0) B60(2)
 B61(2) B62(2) B63(0) B64(0) B65(0) B66(0) B67(0) B68(0) B69(0) B70(2)
 B71(2) B72(0) B73(0) B74(0) B75(0) B76(0) B77(0) B78(2) B79(0) B80(2)
 B81(0) B82(0) B83(0) B84(0) B85(0) B86(0) B87(2) B88(2) B89(0)
Generals
 I90(19) I91(19) I92(4) I93(19) I94(4) I95(19) I96(21) I97(21) I98(20)
 I99(1)
End
